TOUR_SECTION
1
36
139
147
150
170
101
110
25
88
201
98
50
134
7
119
97
70
192
53
198
157
57
188
90
104
197
154
142
91
67
10
41
187
132
106
30
158
99
162
144
61
47
141
96
165
128
93
28
92
87
64
55
191
14
194
164
16
31
109
18
59
116
140
131
74
80
111
112
23
95
175
166
138
179
190
195
40
102
8
62
155
22
136
68
94
123
33
182
129
143
29
38
13
161
122
49
168
124
145
35
127
4
121
3
172
24
130
78
120
69
84
45
151
77
52
21
167
66
44
135
51
189
193
19
37
196
32
163
173
63
169
89
85
9
107
6
176
54
73
71
42
180
60
200
171
43
186
72
174
146
199
156
114
126
183
75
27
100
152
117
11
12
133
48
79
184
17
86
113
181
108
76
149
81
82
56
125
178
159
160
5
65
103
39
2
34
115
26
105
46
20
153
177
58
118
83
15
137
148
185
-1
EOF